W=9;
H=3;

MAX_TIME=21;
MAX_TRACKS=13;
SEMAPHORE_SUPPLY=2;

TARGET=(2,9);

TRAINS=[(2,2,RIGHT),(2,8,LEFT),(2,6,LEFT)];
DECOYS=[];

INIT_POS=[
(2,2,STRAIGHT_RL),
(2,3,STRAIGHT_RL),
(2,4,SWITCH_L_R_D),
(2,5,STRAIGHT_RL),
(2,6,STRAIGHT_RL),
(2,8,STRAIGHT_RL),
(2,9,STRAIGHT_RL),
];
TUNNEL_PAIRS=[];

GATES=[];
ACTIVATIONS=[];

DSWITCHES=[];
STATIONS=[];
